
c turning on binary mode checking

c parsing input formula with 43 variables and 215 clauses

c finished parsing, read 107 bytes from proof file

c detected empty clause; start verification via backward checking

c 97 of 215 clauses in core                            

c 5 of 37 lemmas in core using 147 resolution steps

c 0 RAT lemmas in core; 0 redundant literals in core lemmas

s VERIFIED

c verification time: 0.040 seconds
